language ESSENCE' 1.0
$ minion Nodes: 1
$ minion TotalTime: 0.000411
$ Savile Row TotalTime: 0.136
letting pain_tuple2 be [8, 8]
letting pain_tuple3 be [9, 9]
letting pain_tuple1_Explicit be [[5], 
[5]]
